c Reduced graph for r19 generated by Cyril Grelier
p edge 175 1689
e 1 2
e 1 3
e 1 4
e 1 5
e 1 6
e 1 7
e 1 10
e 1 16
e 1 19
e 1 22
e 1 36
e 1 40
e 1 48
e 1 54
e 1 59
e 1 66
e 1 73
e 1 74
e 1 79
e 1 94
e 1 101
e 1 103
e 1 132
e 1 144
e 2 3
e 2 4
e 2 5
e 2 6
e 2 7
e 2 8
e 2 13
e 2 17
e 2 22
e 2 37
e 2 41
e 2 49
e 2 55
e 2 60
e 2 67
e 2 73
e 2 74
e 2 94
e 2 102
e 2 104
e 2 125
e 2 132
e 2 144
e 3 4
e 3 5
e 3 6
e 3 7
e 3 9
e 3 11
e 3 14
e 3 18
e 3 20
e 3 22
e 3 38
e 3 50
e 3 61
e 3 73
e 3 74
e 3 80
e 3 94
e 3 126
e 3 132
e 3 135
e 3 144
e 3 163
e 4 5
e 4 6
e 4 7
e 4 12
e 4 15
e 4 21
e 4 22
e 4 39
e 4 42
e 4 56
e 4 62
e 4 68
e 4 73
e 4 74
e 4 81
e 4 94
e 4 105
e 4 127
e 4 132
e 4 144
e 4 164
e 5 6
e 5 7
e 5 22
e 5 30
e 5 33
e 5 44
e 5 63
e 5 70
e 5 73
e 5 74
e 5 77
e 5 86
e 5 94
e 5 98
e 5 120
e 5 123
e 5 132
e 5 144
e 5 150
e 6 7
e 6 22
e 6 24
e 6 27
e 6 31
e 6 34
e 6 64
e 6 71
e 6 73
e 6 74
e 6 78
e 6 87
e 6 89
e 6 94
e 6 132
e 6 140
e 6 144
e 6 151
e 7 22
e 7 25
e 7 28
e 7 35
e 7 45
e 7 65
e 7 73
e 7 74
e 7 83
e 7 90
e 7 94
e 7 121
e 7 124
e 7 132
e 7 144
e 7 152
e 7 175
e 8 9
e 8 13
e 8 17
e 8 23
e 8 24
e 8 25
e 8 37
e 8 41
e 8 46
e 8 47
e 8 49
e 8 55
e 8 60
e 8 67
e 8 75
e 8 95
e 8 102
e 8 104
e 8 125
e 8 145
e 8 146
e 8 157
e 9 11
e 9 14
e 9 18
e 9 20
e 9 23
e 9 24
e 9 25
e 9 38
e 9 46
e 9 47
e 9 50
e 9 61
e 9 75
e 9 80
e 9 95
e 9 126
e 9 135
e 9 145
e 9 146
e 9 157
e 9 163
e 10 11
e 10 12
e 10 16
e 10 19
e 10 26
e 10 27
e 10 28
e 10 36
e 10 40
e 10 48
e 10 51
e 10 52
e 10 54
e 10 59
e 10 66
e 10 79
e 10 99
e 10 100
e 10 101
e 10 103
e 10 118
e 10 148
e 11 12
e 11 14
e 11 18
e 11 20
e 11 26
e 11 27
e 11 28
e 11 38
e 11 50
e 11 51
e 11 52
e 11 61
e 11 80
e 11 99
e 11 100
e 11 118
e 11 126
e 11 135
e 11 148
e 11 163
e 12 15
e 12 21
e 12 26
e 12 27
e 12 28
e 12 39
e 12 42
e 12 51
e 12 52
e 12 56
e 12 62
e 12 68
e 12 81
e 12 99
e 12 100
e 12 105
e 12 118
e 12 127
e 12 148
e 12 164
e 13 14
e 13 15
e 13 17
e 13 29
e 13 30
e 13 31
e 13 37
e 13 41
e 13 49
e 13 53
e 13 55
e 13 60
e 13 67
e 13 82
e 13 102
e 13 104
e 13 106
e 13 107
e 13 125
e 13 153
e 13 160
e 14 15
e 14 18
e 14 20
e 14 29
e 14 30
e 14 31
e 14 38
e 14 50
e 14 53
e 14 61
e 14 80
e 14 82
e 14 106
e 14 107
e 14 126
e 14 135
e 14 153
e 14 160
e 14 163
e 15 21
e 15 29
e 15 30
e 15 31
e 15 39
e 15 42
e 15 53
e 15 56
e 15 62
e 15 68
e 15 81
e 15 82
e 15 105
e 15 106
e 15 107
e 15 127
e 15 153
e 15 160
e 15 164
e 16 17
e 16 18
e 16 19
e 16 32
e 16 33
e 16 34
e 16 35
e 16 36
e 16 40
e 16 48
e 16 54
e 16 57
e 16 58
e 16 59
e 16 66
e 16 79
e 16 84
e 16 101
e 16 103
e 16 110
e 16 111
e 17 18
e 17 32
e 17 33
e 17 34
e 17 35
e 17 37
e 17 41
e 17 49
e 17 55
e 17 57
e 17 58
e 17 60
e 17 67
e 17 84
e 17 102
e 17 104
e 17 110
e 17 111
e 17 125
e 18 20
e 18 32
e 18 33
e 18 34
e 18 35
e 18 38
e 18 50
e 18 57
e 18 58
e 18 61
e 18 80
e 18 84
e 18 110
e 18 111
e 18 126
e 18 135
e 18 163
e 19 20
e 19 21
e 19 36
e 19 40
e 19 43
e 19 44
e 19 45
e 19 48
e 19 54
e 19 59
e 19 66
e 19 72
e 19 79
e 19 93
e 19 101
e 19 103
e 19 116
e 19 131
e 19 156
e 20 21
e 20 38
e 20 43
e 20 44
e 20 45
e 20 50
e 20 61
e 20 72
e 20 80
e 20 93
e 20 116
e 20 126
e 20 131
e 20 135
e 20 156
e 20 163
e 21 39
e 21 42
e 21 43
e 21 44
e 21 45
e 21 56
e 21 62
e 21 68
e 21 72
e 21 81
e 21 93
e 21 105
e 21 116
e 21 127
e 21 131
e 21 156
e 21 164
e 22 47
e 22 52
e 22 58
e 22 72
e 22 73
e 22 74
e 22 88
e 22 92
e 22 94
e 22 96
e 22 109
e 22 132
e 22 134
e 22 137
e 22 144
e 23 24
e 23 25
e 23 26
e 23 29
e 23 32
e 23 43
e 23 46
e 23 47
e 23 69
e 23 75
e 23 76
e 23 85
e 23 95
e 23 97
e 23 119
e 23 122
e 23 139
e 23 145
e 23 146
e 23 157
e 24 25
e 24 27
e 24 31
e 24 34
e 24 46
e 24 47
e 24 64
e 24 71
e 24 75
e 24 78
e 24 87
e 24 89
e 24 95
e 24 140
e 24 145
e 24 146
e 24 151
e 24 157
e 25 28
e 25 35
e 25 45
e 25 46
e 25 47
e 25 65
e 25 75
e 25 83
e 25 90
e 25 95
e 25 121
e 25 124
e 25 145
e 25 146
e 25 152
e 25 157
e 25 175
e 26 27
e 26 28
e 26 29
e 26 32
e 26 43
e 26 51
e 26 52
e 26 69
e 26 76
e 26 85
e 26 97
e 26 99
e 26 100
e 26 118
e 26 119
e 26 122
e 26 139
e 26 148
e 27 28
e 27 31
e 27 34
e 27 51
e 27 52
e 27 64
e 27 71
e 27 78
e 27 87
e 27 89
e 27 99
e 27 100
e 27 118
e 27 140
e 27 148
e 27 151
e 28 35
e 28 45
e 28 51
e 28 52
e 28 65
e 28 83
e 28 90
e 28 99
e 28 100
e 28 118
e 28 121
e 28 124
e 28 148
e 28 152
e 28 175
e 29 30
e 29 31
e 29 32
e 29 43
e 29 53
e 29 69
e 29 76
e 29 82
e 29 85
e 29 97
e 29 106
e 29 107
e 29 119
e 29 122
e 29 139
e 29 153
e 29 160
e 30 31
e 30 33
e 30 44
e 30 53
e 30 63
e 30 70
e 30 77
e 30 82
e 30 86
e 30 98
e 30 106
e 30 107
e 30 120
e 30 123
e 30 150
e 30 153
e 30 160
e 31 34
e 31 53
e 31 64
e 31 71
e 31 78
e 31 82
e 31 87
e 31 89
e 31 106
e 31 107
e 31 140
e 31 151
e 31 153
e 31 160
e 32 33
e 32 34
e 32 35
e 32 43
e 32 57
e 32 58
e 32 69
e 32 76
e 32 84
e 32 85
e 32 97
e 32 110
e 32 111
e 32 119
e 32 122
e 32 139
e 33 34
e 33 35
e 33 44
e 33 57
e 33 58
e 33 63
e 33 70
e 33 77
e 33 84
e 33 86
e 33 98
e 33 110
e 33 111
e 33 120
e 33 123
e 33 150
e 34 35
e 34 57
e 34 58
e 34 64
e 34 71
e 34 78
e 34 84
e 34 87
e 34 89
e 34 110
e 34 111
e 34 140
e 34 151
e 35 45
e 35 57
e 35 58
e 35 65
e 35 83
e 35 84
e 35 90
e 35 110
e 35 111
e 35 121
e 35 124
e 35 152
e 35 175
e 36 37
e 36 38
e 36 39
e 36 40
e 36 48
e 36 54
e 36 59
e 36 63
e 36 64
e 36 65
e 36 66
e 36 79
e 36 88
e 36 101
e 36 103
e 36 113
e 36 128
e 36 142
e 37 38
e 37 39
e 37 41
e 37 49
e 37 55
e 37 60
e 37 63
e 37 64
e 37 65
e 37 67
e 37 88
e 37 102
e 37 104
e 37 113
e 37 125
e 37 128
e 37 142
e 38 39
e 38 50
e 38 61
e 38 63
e 38 64
e 38 65
e 38 80
e 38 88
e 38 113
e 38 126
e 38 128
e 38 135
e 38 142
e 38 163
e 39 42
e 39 56
e 39 62
e 39 63
e 39 64
e 39 65
e 39 68
e 39 81
e 39 88
e 39 105
e 39 113
e 39 127
e 39 128
e 39 142
e 39 164
e 40 41
e 40 42
e 40 48
e 40 54
e 40 59
e 40 66
e 40 69
e 40 70
e 40 71
e 40 79
e 40 91
e 40 92
e 40 101
e 40 103
e 40 115
e 40 130
e 40 172
e 41 42
e 41 49
e 41 55
e 41 60
e 41 67
e 41 69
e 41 70
e 41 71
e 41 91
e 41 92
e 41 102
e 41 104
e 41 115
e 41 125
e 41 130
e 41 172
e 42 56
e 42 62
e 42 68
e 42 69
e 42 70
e 42 71
e 42 81
e 42 91
e 42 92
e 42 105
e 42 115
e 42 127
e 42 130
e 42 164
e 42 172
e 43 44
e 43 45
e 43 69
e 43 72
e 43 76
e 43 85
e 43 93
e 43 97
e 43 116
e 43 119
e 43 122
e 43 131
e 43 139
e 43 156
e 44 45
e 44 63
e 44 70
e 44 72
e 44 77
e 44 86
e 44 93
e 44 98
e 44 116
e 44 120
e 44 123
e 44 131
e 44 150
e 44 156
e 45 65
e 45 72
e 45 83
e 45 90
e 45 93
e 45 116
e 45 121
e 45 124
e 45 131
e 45 152
e 45 156
e 45 175
e 46 47
e 46 51
e 46 53
e 46 57
e 46 75
e 46 91
e 46 95
e 46 108
e 46 112
e 46 114
e 46 117
e 46 136
e 46 145
e 46 146
e 46 157
e 46 159
e 47 52
e 47 58
e 47 72
e 47 75
e 47 88
e 47 92
e 47 95
e 47 96
e 47 109
e 47 134
e 47 137
e 47 145
e 47 146
e 47 157
e 48 49
e 48 50
e 48 54
e 48 59
e 48 66
e 48 76
e 48 77
e 48 78
e 48 79
e 48 96
e 48 101
e 48 103
e 48 133
e 48 162
e 48 173
e 49 50
e 49 55
e 49 60
e 49 67
e 49 76
e 49 77
e 49 78
e 49 96
e 49 102
e 49 104
e 49 125
e 49 133
e 49 162
e 49 173
e 50 61
e 50 76
e 50 77
e 50 78
e 50 80
e 50 96
e 50 126
e 50 133
e 50 135
e 50 162
e 50 163
e 50 173
e 51 52
e 51 53
e 51 57
e 51 91
e 51 99
e 51 100
e 51 108
e 51 112
e 51 114
e 51 117
e 51 118
e 51 136
e 51 148
e 51 159
e 52 58
e 52 72
e 52 88
e 52 92
e 52 96
e 52 99
e 52 100
e 52 109
e 52 118
e 52 134
e 52 137
e 52 148
e 53 57
e 53 82
e 53 91
e 53 106
e 53 107
e 53 108
e 53 112
e 53 114
e 53 117
e 53 136
e 53 153
e 53 159
e 53 160
e 54 55
e 54 56
e 54 59
e 54 66
e 54 79
e 54 83
e 54 101
e 54 103
e 54 108
e 54 109
e 54 138
e 54 154
e 54 167
e 54 168
e 55 56
e 55 60
e 55 67
e 55 83
e 55 102
e 55 104
e 55 108
e 55 109
e 55 125
e 55 138
e 55 154
e 55 167
e 55 168
e 56 62
e 56 68
e 56 81
e 56 83
e 56 105
e 56 108
e 56 109
e 56 127
e 56 138
e 56 154
e 56 164
e 56 167
e 56 168
e 57 58
e 57 84
e 57 91
e 57 108
e 57 110
e 57 111
e 57 112
e 57 114
e 57 117
e 57 136
e 57 159
e 58 72
e 58 84
e 58 88
e 58 92
e 58 96
e 58 109
e 58 110
e 58 111
e 58 134
e 58 137
e 59 60
e 59 61
e 59 62
e 59 66
e 59 79
e 59 85
e 59 86
e 59 87
e 59 101
e 59 103
e 59 112
e 59 141
e 59 170
e 60 61
e 60 62
e 60 67
e 60 85
e 60 86
e 60 87
e 60 102
e 60 104
e 60 112
e 60 125
e 60 141
e 60 170
e 61 62
e 61 80
e 61 85
e 61 86
e 61 87
e 61 112
e 61 126
e 61 135
e 61 141
e 61 163
e 61 170
e 62 68
e 62 81
e 62 85
e 62 86
e 62 87
e 62 105
e 62 112
e 62 127
e 62 141
e 62 164
e 62 170
e 63 64
e 63 65
e 63 70
e 63 77
e 63 86
e 63 88
e 63 98
e 63 113
e 63 120
e 63 123
e 63 128
e 63 142
e 63 150
e 64 65
e 64 71
e 64 78
e 64 87
e 64 88
e 64 89
e 64 113
e 64 128
e 64 140
e 64 142
e 64 151
e 65 83
e 65 88
e 65 90
e 65 113
e 65 121
e 65 124
e 65 128
e 65 142
e 65 152
e 65 175
e 66 67
e 66 68
e 66 79
e 66 89
e 66 90
e 66 101
e 66 103
e 66 114
e 66 129
e 66 143
e 66 155
e 66 171
e 67 68
e 67 89
e 67 90
e 67 102
e 67 104
e 67 114
e 67 125
e 67 129
e 67 143
e 67 155
e 67 171
e 68 81
e 68 89
e 68 90
e 68 105
e 68 114
e 68 127
e 68 129
e 68 143
e 68 155
e 68 164
e 68 171
e 69 70
e 69 71
e 69 76
e 69 85
e 69 91
e 69 92
e 69 97
e 69 115
e 69 119
e 69 122
e 69 130
e 69 139
e 69 172
e 70 71
e 70 77
e 70 86
e 70 91
e 70 92
e 70 98
e 70 115
e 70 120
e 70 123
e 70 130
e 70 150
e 70 172
e 71 78
e 71 87
e 71 89
e 71 91
e 71 92
e 71 115
e 71 130
e 71 140
e 71 151
e 71 172
e 72 88
e 72 92
e 72 93
e 72 96
e 72 109
e 72 116
e 72 131
e 72 134
e 72 137
e 72 156
e 73 74
e 73 94
e 73 99
e 73 106
e 73 110
e 73 116
e 73 130
e 73 132
e 73 138
e 73 141
e 73 144
e 73 147
e 74 94
e 74 95
e 74 100
e 74 107
e 74 111
e 74 128
e 74 132
e 74 133
e 74 143
e 74 144
e 74 169
e 75 82
e 75 84
e 75 93
e 75 95
e 75 113
e 75 115
e 75 129
e 75 145
e 75 146
e 75 149
e 75 157
e 75 161
e 75 166
e 76 77
e 76 78
e 76 85
e 76 96
e 76 97
e 76 119
e 76 122
e 76 133
e 76 139
e 76 162
e 76 173
e 77 78
e 77 86
e 77 96
e 77 98
e 77 120
e 77 123
e 77 133
e 77 150
e 77 162
e 77 173
e 78 87
e 78 89
e 78 96
e 78 133
e 78 140
e 78 151
e 78 162
e 78 173
e 79 80
e 79 81
e 79 97
e 79 98
e 79 101
e 79 103
e 79 117
e 79 147
e 79 158
e 79 174
e 80 81
e 80 97
e 80 98
e 80 117
e 80 126
e 80 135
e 80 147
e 80 158
e 80 163
e 80 174
e 81 97
e 81 98
e 81 105
e 81 117
e 81 127
e 81 147
e 81 158
e 81 164
e 81 174
e 82 84
e 82 93
e 82 106
e 82 107
e 82 113
e 82 115
e 82 129
e 82 149
e 82 153
e 82 160
e 82 161
e 82 166
e 83 90
e 83 108
e 83 109
e 83 121
e 83 124
e 83 138
e 83 152
e 83 154
e 83 167
e 83 168
e 83 175
e 84 93
e 84 110
e 84 111
e 84 113
e 84 115
e 84 129
e 84 149
e 84 161
e 84 166
e 85 86
e 85 87
e 85 97
e 85 112
e 85 119
e 85 122
e 85 139
e 85 141
e 85 170
e 86 87
e 86 98
e 86 112
e 86 120
e 86 123
e 86 141
e 86 150
e 86 170
e 87 89
e 87 112
e 87 140
e 87 141
e 87 151
e 87 170
e 88 92
e 88 96
e 88 109
e 88 113
e 88 128
e 88 134
e 88 137
e 88 142
e 89 90
e 89 114
e 89 129
e 89 140
e 89 143
e 89 151
e 89 155
e 89 171
e 90 114
e 90 121
e 90 124
e 90 129
e 90 143
e 90 152
e 90 155
e 90 171
e 90 175
e 91 92
e 91 108
e 91 112
e 91 114
e 91 115
e 91 117
e 91 130
e 91 136
e 91 159
e 91 172
e 92 96
e 92 109
e 92 115
e 92 130
e 92 134
e 92 137
e 92 172
e 93 113
e 93 115
e 93 116
e 93 129
e 93 131
e 93 149
e 93 156
e 93 161
e 93 166
e 94 118
e 94 131
e 94 132
e 94 142
e 94 144
e 94 154
e 94 155
e 94 158
e 94 165
e 95 100
e 95 107
e 95 111
e 95 128
e 95 133
e 95 143
e 95 145
e 95 146
e 95 157
e 95 169
e 96 109
e 96 133
e 96 134
e 96 137
e 96 162
e 96 173
e 97 98
e 97 117
e 97 119
e 97 122
e 97 139
e 97 147
e 97 158
e 97 174
e 98 117
e 98 120
e 98 123
e 98 147
e 98 150
e 98 158
e 98 174
e 99 100
e 99 106
e 99 110
e 99 116
e 99 118
e 99 130
e 99 138
e 99 141
e 99 147
e 99 148
e 100 107
e 100 111
e 100 118
e 100 128
e 100 133
e 100 143
e 100 148
e 100 169
e 101 102
e 101 103
e 101 119
e 101 120
e 101 121
e 101 134
e 101 149
e 101 165
e 102 104
e 102 119
e 102 120
e 102 121
e 102 125
e 102 134
e 102 149
e 102 165
e 103 104
e 103 105
e 103 122
e 103 123
e 103 124
e 103 136
e 103 137
e 104 105
e 104 122
e 104 123
e 104 124
e 104 125
e 104 136
e 104 137
e 105 122
e 105 123
e 105 124
e 105 127
e 105 136
e 105 137
e 105 164
e 106 107
e 106 110
e 106 116
e 106 130
e 106 138
e 106 141
e 106 147
e 106 153
e 106 160
e 107 111
e 107 128
e 107 133
e 107 143
e 107 153
e 107 160
e 107 169
e 108 109
e 108 112
e 108 114
e 108 117
e 108 136
e 108 138
e 108 154
e 108 159
e 108 167
e 108 168
e 109 134
e 109 137
e 109 138
e 109 154
e 109 167
e 109 168
e 110 111
e 110 116
e 110 130
e 110 138
e 110 141
e 110 147
e 111 128
e 111 133
e 111 143
e 111 169
e 112 114
e 112 117
e 112 136
e 112 141
e 112 159
e 112 170
e 113 115
e 113 128
e 113 129
e 113 142
e 113 149
e 113 161
e 113 166
e 114 117
e 114 129
e 114 136
e 114 143
e 114 155
e 114 159
e 114 171
e 115 129
e 115 130
e 115 149
e 115 161
e 115 166
e 115 172
e 116 130
e 116 131
e 116 138
e 116 141
e 116 147
e 116 156
e 117 136
e 117 147
e 117 158
e 117 159
e 117 174
e 118 131
e 118 142
e 118 148
e 118 154
e 118 155
e 118 158
e 118 165
e 119 120
e 119 121
e 119 122
e 119 134
e 119 139
e 119 149
e 119 165
e 120 121
e 120 123
e 120 134
e 120 149
e 120 150
e 120 165
e 121 124
e 121 134
e 121 149
e 121 152
e 121 165
e 121 175
e 122 123
e 122 124
e 122 136
e 122 137
e 122 139
e 123 124
e 123 136
e 123 137
e 123 150
e 124 136
e 124 137
e 124 152
e 124 175
e 125 126
e 125 127
e 125 139
e 125 140
e 125 161
e 125 169
e 126 127
e 126 135
e 126 139
e 126 140
e 126 161
e 126 163
e 126 169
e 127 139
e 127 140
e 127 161
e 127 164
e 127 169
e 128 133
e 128 142
e 128 143
e 128 169
e 129 143
e 129 149
e 129 155
e 129 161
e 129 166
e 129 171
e 130 138
e 130 141
e 130 147
e 130 172
e 131 142
e 131 154
e 131 155
e 131 156
e 131 158
e 131 165
e 132 144
e 132 146
e 132 148
e 132 162
e 132 168
e 132 174
e 133 143
e 133 162
e 133 169
e 133 173
e 134 137
e 134 149
e 134 165
e 135 150
e 135 151
e 135 152
e 135 159
e 135 163
e 135 166
e 136 137
e 136 159
e 138 141
e 138 147
e 138 154
e 138 167
e 138 168
e 139 140
e 139 161
e 139 169
e 140 151
e 140 161
e 140 169
e 141 147
e 141 170
e 142 154
e 142 155
e 142 158
e 142 165
e 143 155
e 143 169
e 143 171
e 144 157
e 144 160
e 144 172
e 144 173
e 145 146
e 145 153
e 145 156
e 145 157
e 145 167
e 145 170
e 145 171
e 146 148
e 146 157
e 146 162
e 146 168
e 146 174
e 147 158
e 147 174
e 148 162
e 148 168
e 148 174
e 149 161
e 149 165
e 149 166
e 150 151
e 150 152
e 150 159
e 150 166
e 151 152
e 151 159
e 151 166
e 152 159
e 152 166
e 152 175
e 153 156
e 153 160
e 153 167
e 153 170
e 153 171
e 154 155
e 154 158
e 154 165
e 154 167
e 154 168
e 155 158
e 155 165
e 155 171
e 156 167
e 156 170
e 156 171
e 157 160
e 157 172
e 157 173
e 158 165
e 158 174
e 159 166
e 160 172
e 160 173
e 161 166
e 161 169
e 162 168
e 162 173
e 162 174
e 163 164
e 163 175
e 164 175
e 167 168
e 167 170
e 167 171
e 168 174
e 170 171
e 172 173
